data/solutions/recovery/degenerate/intermediate/binding/degenerate_intermediate_instance23/97.sol
Elapsed time: 0.04
Upper bound: 247546621.0
Planning weighted value: 9.04231368931e+11
C[0]=247546621.0
C[1]=236767111.0
C[2]=235399247.0
C[3]=230267231.0
C[4]=226174837.0
C[5]=225749959.0
C[6]=219303553.0
C[7]=218373801.0
C[8]=214388981.0
C[9]=214225554.0
C[10]=214209005.0
C[11]=0.0
y[0]=9
y[1]=1
y[2]=6
y[3]=10
y[4]=3
y[5]=4
y[6]=1
y[7]=5
y[8]=2
y[9]=3
y[10]=7
y[11]=5
y[12]=2
y[13]=3
y[14]=2
y[15]=3
y[16]=9
y[17]=0
y[18]=5
y[19]=9
y[20]=8
y[21]=9
y[22]=6
y[23]=7
y[24]=5
y[25]=9
y[26]=10
y[27]=2
y[28]=7
y[29]=8
y[30]=1
y[31]=10
y[32]=0
y[33]=0
y[34]=7
y[35]=1
y[36]=1
y[37]=0
y[38]=3
y[39]=1
y[40]=4
y[41]=4
y[42]=6
y[43]=3
y[44]=0
y[45]=9
y[46]=0
y[47]=3
y[48]=6
y[49]=1
y[50]=1
y[51]=0
y[52]=5
y[53]=6
y[54]=4
y[55]=9
y[56]=2
y[57]=7
y[58]=2
y[59]=6
y[60]=8
y[61]=8
y[62]=8
y[63]=10
y[64]=0
y[65]=7
y[66]=1
y[67]=9
y[68]=10
y[69]=4
y[70]=3
y[71]=3
y[72]=6
y[73]=5
y[74]=4
y[75]=2
y[76]=4
y[77]=2
